
  23    0


   0  15 2 3 4 5 6 7 10 11 16 17 18 19 20 21 22 
   3   4 15 14 9 8 
   3   3 14 13 12 
   4   2 15 12 
   4   2 14 13 
   2   2 13 12 
   1   1 8 
   8   1 13 
   2   1 12 
   4   1 12 
   9   1 12 
  10   1 23
  10   1 23
   4   1 23
   8   1 23
   6   1 23
   5   1 23
   8   1 23
   4   1 23
   4   1 23
   6   1 23
   2   1 23
   0   0 
